\ This file has been generated by DOcplex
\ ENCODING=ISO-8859-1
\Problem name: random_problem.lp

Minimize
 obj: - 404 x0 - 202 x1 - 101 x2 + 1440 x3 + 720 x4 + 360 x5 + 2572 x6 + 1286 x7
      + 643 x8 + [ 6144 x0^2 + 6144 x0*x1 + 3072 x0*x2 + 3776 x0*x3 + 1888 x0*x4
      + 944 x0*x5 + 5568 x0*x6 + 2784 x0*x7 + 1392 x0*x8 + 1536 x1^2
      + 1536 x1*x2 + 1888 x1*x3 + 944 x1*x4 + 472 x1*x5 + 2784 x1*x6
      + 1392 x1*x7 + 696 x1*x8 + 384 x2^2 + 944 x2*x3 + 472 x2*x4 + 236 x2*x5
      + 1392 x2*x6 + 696 x2*x7 + 348 x2*x8 + 16576 x3^2 + 16576 x3*x4
      + 8288 x3*x5 + 3200 x3*x6 + 1600 x3*x7 + 800 x3*x8 + 4144 x4^2
      + 4144 x4*x5 + 1600 x4*x6 + 800 x4*x7 + 400 x4*x8 + 1036 x5^2 + 800 x5*x6
      + 400 x5*x7 + 200 x5*x8 + 4768 x6^2 + 4768 x6*x7 + 2384 x6*x8 + 1192 x7^2
      + 1192 x7*x8 + 298 x8^2 ]/2
Subject To
 c0: 4 x0 + 2 x1 + x2 + 4 x3 + 2 x4 + x5 + 4 x6 + 2 x7 + x8 = 7

Bounds
 0 <= x0 <= 1
 0 <= x1 <= 1
 0 <= x2 <= 1
 0 <= x3 <= 1
 0 <= x4 <= 1
 0 <= x5 <= 1
 0 <= x6 <= 1
 0 <= x7 <= 1
 0 <= x8 <= 1

Binaries
 x0 x1 x2 x3 x4 x5 x6 x7 x8
End
